decision_x1=[0,2];
decision_x2=[0,2];
decision_x3=[0,2];
decision_x4=[0,2];
decision_x5=[0,2];
decision_x6=[0,2];
decision_x7=[0,2];
decision_x8=[0,2];
decision_x9=[0,2];
decision_x10=[0,2];
random_y1=[0,2];
random_y2=[0,2];
constraint_x4_x1=[
0,1,6.8|
0,2,6.4|
1,0,1.3|
1,2,7.6|
2,0,8.9|
2,1,6.7|
];
constraint_x4_x2=[
0,1,2.7|
0,2,8.6|
1,0,7.9|
1,2,5|
2,0,2.6|
2,1,2.2|
];
constraint_x5_x1=[
0,1,5.5|
0,2,3.9|
1,0,9|
1,2,10|
2,0,0.15|
2,1,9.7|
];
constraint_x6_x1=[
0,1,8.5|
0,2,0.62|
1,0,7.9|
1,2,2.4|
2,0,6.8|
2,1,2.9|
];
constraint_x6_x2=[
0,1,3.5|
0,2,8.8|
1,0,8.1|
1,2,8.4|
2,0,1.1|
2,1,5.2|
];
constraint_x6_x4=[
0,1,1.8|
0,2,0.52|
1,0,8.5|
1,2,5|
2,0,3.3|
2,1,5.3|
];
constraint_x7_x1=[
0,1,1.5|
0,2,0.65|
1,0,1.7|
1,2,8.6|
2,0,6.7|
2,1,10|
];
constraint_x7_x2=[
0,1,7.5|
0,2,8.9|
1,0,8.2|
1,2,9.1|
2,0,9.6|
2,1,0.018|
];
constraint_x7_x3=[
0,1,2.7|
0,2,9.3|
1,0,3.8|
1,2,2.6|
2,0,7.9|
2,1,3.8|
];
constraint_x8_x1=[
0,1,9.6|
0,2,7.6|
1,0,4.2|
1,2,8.7|
2,0,1.5|
2,1,6.5|
];
constraint_x8_x2=[
0,1,3.2|
0,2,2|
1,0,7.5|
1,2,3.8|
2,0,3.5|
2,1,2.6|
];
constraint_x8_x3=[
0,1,9.2|
0,2,5.1|
1,0,9.4|
1,2,2.7|
2,0,1.9|
2,1,6.2|
];
constraint_x8_x4=[
0,1,9.3|
0,2,2.3|
1,0,9.7|
1,2,7.2|
2,0,5.7|
2,1,6.7|
];
constraint_x9_x2=[
0,1,7.2|
0,2,9.3|
1,0,6.9|
1,2,8.4|
2,0,1.1|
2,1,6|
];
constraint_x9_x3=[
0,1,9.6|
0,2,5.8|
1,0,9.9|
1,2,2.1|
2,0,5.5|
2,1,9.9|
];
constraint_x9_x4=[
0,1,1.7|
0,2,10|
1,0,2.4|
1,2,2.2|
2,0,4.8|
2,1,8.6|
];
constraint_x9_x8=[
0,1,7.6|
0,2,2.3|
1,0,2.9|
1,2,0.21|
2,0,7.4|
2,1,8.5|
];
constraint_x10_x1=[
0,1,4.7|
0,2,5.9|
1,0,3|
1,2,0.13|
2,0,2.2|
2,1,5.8|
];
constraint_x10_x3=[
0,1,8.6|
0,2,8.1|
1,0,4.3|
1,2,3.3|
2,0,0.49|
2,1,0.6|
];
constraint_x10_x4=[
0,1,10|
0,2,6.2|
1,0,5.4|
1,2,5.8|
2,0,1.2|
2,1,7.7|
];
constraint_x10_x5=[
0,1,0.85|
0,2,9.9|
1,0,2.8|
1,2,0.61|
2,0,3.3|
2,1,3.8|
];
constraint_x10_x8=[
0,1,6.4|
0,2,7.6|
1,0,2.5|
1,2,3.2|
2,0,2.1|
2,1,9|
];
constraint_x10_x9=[
0,1,9.8|
0,2,9.9|
1,0,4.4|
1,2,9.3|
2,0,8.4|
2,1,2.6|
];
constraint_x1_y1=[
0,0,2.4|
0,1,9.3|
0,2,1.8|
1,0,6.4|
1,1,0.57|
1,2,3.5|
2,0,4.6|
2,1,3|
2,2,1.6|
];
constraint_x2_y2=[
0,0,9.4|
0,1,4.4|
0,2,5.1|
1,0,0.9|
1,1,4.5|
1,2,9.8|
2,0,4.1|
2,1,4|
2,2,9.9|
];
initial_distribution_y1=[0.39,0.51,0.093];
initial_distribution_y2=[0.25,0.15,0.61];
transition_y1=[
0.51,0.22,0.26|
0.41,0.17,0.42|
0.18,0.64,0.17|
];
transition_y2=[
0.24,0.34,0.41|
0.098,0.45,0.46|
0.37,0.28,0.35|
];
